Output/Exact/Random_020_04_4.lp.out
CPU Time for Parsing input: 0.001816s (0.001816s total since program start)
CPU Time for solving: 0.150963s (0.152779s total since program start)

Value of objective function: 47.00000000
